100
100
3000 3000 3000 3000 3000 3000 3000 3000 3000 3000 3000 3000 3000 3000 3000 3000 3000 3000 3000 3000 3000 3000 3000 3000 3000 3000 3000 3000 3000 3000 3000 3000 3000 3000 3000 3000 3000 3000 3000 3000 3000 3000 3000 3000 3000 3000 3000 3000 3000 3000 3000 3000 3000 3000 3000 3000 3000 3000 3000 3000 3000 3000 3000 3000 3000 3000 3000 3000 3000 3000 3000 3000 3000 3000 3000 3000 3000 3000 3000 3000 3000 3000 3000 3000 3000 3000 3000 3000 3000 3000 3000 3000 3000 3000 3000 3000 3000 3000 3000 3000
0 3 4
0 14 1
0 17 0
0 25 3
0 28 4
0 39 1
0 42 1
0 66 0
0 71 4
0 78 4
0 89 0
0 94 1
1 9 3
1 11 1
1 19 4
1 27 2
1 31 3
1 35 3
1 40 0
1 58 4
1 82 2
1 84 1
1 88 0
2 33 0
2 44 3
2 57 3
2 84 4
2 85 4
2 86 0
2 87 1
3 2 3
3 14 0
3 15 1
3 20 0
3 38 3
3 43 3
3 48 2
3 49 0
3 62 0
3 70 4
3 71 0
4 2 2
4 6 3
4 15 4
4 23 3
4 33 4
4 41 0
4 59 0
5 12 3
5 18 3
5 26 2
5 27 4
5 69 3
5 72 3
5 90 4
6 21 0
6 37 3
6 41 4
6 47 2
6 52 3
6 56 4
6 62 1
6 72 1
7 16 3
7 22 4
7 42 3
7 45 1
7 65 4
7 73 4
7 81 2
7 90 1
8 0 2
8 26 4
8 28 3
8 29 2
8 47 1
8 65 0
8 68 3
8 88 1
8 90 3
9 2 2
9 29 0
9 31 1
9 52 4
9 58 3
9 67 3
9 69 1
9 71 3
9 72 0
9 81 2
9 92 2
10 30 1
10 39 3
10 41 0
10 53 3
10 61 4
10 78 0
10 85 0
10 92 2
10 96 1
11 21 0
11 23 4
11 25 1
11 33 4
11 51 2
11 52 2
11 54 4
11 60 2
11 68 2
11 72 1
11 78 1
11 86 4
11 91 3
11 96 2
11 97 2
12 13 1
12 32 1
12 36 1
12 39 1
12 42 0
12 44 4
12 47 0
12 60 1
12 79 0
12 85 2
12 90 4
13 0 0
13 8 3
13 12 3
13 53 1
13 65 2
13 69 3
13 93 2
13 94 0
14 2 3
14 17 2
14 25 1
14 40 1
14 79 0
14 83 1
15 14 0
15 33 1
15 36 4
15 54 3
15 56 4
15 70 1
15 89 1
15 97 4
15 99 3
16 1 4
16 12 0
16 16 1
16 23 2
16 50 2
16 61 1
16 66 0
16 81 2
16 85 4
16 87 2
16 92 2
16 95 2
17 3 4
17 5 0
17 10 4
17 29 1
17 32 3
17 33 3
17 55 2
17 67 3
17 78 1
17 91 3
17 96 0
18 3 0
18 12 4
18 16 0
18 22 4
18 32 1
18 41 2
18 48 1
18 50 2
18 65 2
18 69 0
18 94 3
19 9 3
19 20 1
19 32 0
19 48 1
19 63 1
19 69 3
19 77 2
19 78 4
20 3 1
20 5 3
20 53 3
20 55 2
20 59 4
20 64 1
20 80 2
21 17 0
21 41 3
21 52 1
21 66 2
21 73 3
21 78 0
21 82 3
21 97 2
22 1 2
22 22 2
22 26 4
22 32 2
22 36 3
22 51 3
22 59 0
22 87 4
23 22 1
23 42 3
23 49 3
23 69 4
23 87 1
23 94 4
24 4 2
24 27 0
24 28 3
24 29 4
24 49 3
24 57 0
24 60 0
24 61 1
24 63 0
24 73 1
24 76 1
24 79 2
24 83 0
24 96 3
25 15 0
25 18 2
25 29 3
25 37 3
25 45 4
25 56 4
25 86 1
25 91 4
25 93 4
26 19 4
26 25 3
26 39 2
26 43 0
26 63 4
26 74 0
26 89 4
26 95 0
27 4 1
27 7 4
27 16 3
27 48 3
27 60 2
27 73 4
27 75 2
27 82 2
27 85 4
27 95 0
27 96 2
27 97 4
28 11 0
28 12 4
28 33 4
28 38 4
28 39 3
28 46 2
28 49 0
28 75 4
28 81 2
28 83 0
29 10 0
29 21 2
29 26 3
29 38 4
29 39 2
29 42 3
29 53 3
29 54 1
29 80 1
29 89 3
29 92 1
30 36 1
30 38 2
30 51 1
30 55 3
30 70 3
30 79 4
30 81 1
30 96 0
30 98 0
31 3 3
31 4 0
31 23 1
31 25 3
31 26 0
31 36 0
31 54 0
31 57 0
31 58 3
31 61 4
31 73 0
31 87 4
32 25 1
32 27 4
32 28 0
32 35 0
32 55 1
32 56 3
32 61 1
32 65 0
32 68 1
32 69 3
32 71 4
32 75 2
32 86 2
32 87 3
33 4 4
33 20 4
33 21 4
33 47 0
33 63 4
33 64 2
33 67 2
33 74 4
34 6 2
34 15 2
34 30 0
34 43 2
34 58 1
34 70 1
34 73 2
34 77 3
34 84 4
34 85 0
34 92 2
34 94 2
34 97 1
35 5 1
35 10 1
35 16 1
35 18 0
35 31 2
35 45 2
35 47 4
35 49 0
35 59 4
35 65 1
36 5 4
36 10 3
36 13 4
36 15 0
36 33 4
36 37 0
36 43 0
36 53 2
36 56 0
36 80 2
36 93 4
37 11 4
37 31 0
37 40 1
37 46 0
37 54 3
37 58 2
37 78 4
37 81 0
37 95 1
38 14 1
38 16 2
38 26 0
38 29 2
38 37 2
38 46 3
38 68 3
38 69 0
38 75 3
38 78 2
38 88 4
38 98 3
38 99 2
39 36 3
39 43 4
39 68 2
39 69 0
39 82 4
39 90 3
39 99 2
40 1 3
40 4 3
40 9 2
40 14 1
40 33 4
40 44 3
40 57 4
40 67 3
40 82 2
40 84 4
41 9 0
41 17 4
41 24 1
41 40 0
41 47 2
41 55 1
41 58 0
41 74 1
41 77 2
41 93 2
42 0 0
42 9 1
42 13 3
42 19 4
42 54 2
42 76 0
42 82 2
42 89 2
42 95 0
42 99 2
43 18 4
43 19 1
43 24 2
43 31 2
43 35 1
43 38 1
43 67 2
43 83 2
43 87 2
44 4 3
44 7 4
44 17 2
44 48 3
44 50 4
44 52 2
44 62 1
44 71 4
44 80 4
44 96 4
45 1 1
45 9 1
45 24 2
45 25 0
45 29 2
45 31 1
45 52 2
45 54 3
45 59 1
45 68 2
45 75 3
45 76 3
45 93 0
46 18 2
46 21 4
46 24 2
46 26 1
46 35 0
46 48 0
46 54 2
46 60 3
46 91 1
47 4 0
47 7 4
47 14 1
47 36 2
47 39 4
47 60 3
47 62 0
47 65 4
47 66 1
47 74 1
48 0 0
48 2 2
48 3 2
48 20 4
48 23 2
48 38 0
48 39 0
48 59 0
48 63 2
48 77 1
48 81 4
48 85 0
48 94 4
49 0 0
49 13 0
49 20 3
49 22 0
49 45 4
49 51 0
49 55 1
49 57 1
49 66 1
49 75 3
49 83 4
49 90 3
50 1 4
50 2 1
50 31 2
50 42 2
50 64 3
50 66 0
50 70 0
50 82 0
50 83 4
50 88 0
51 5 1
51 20 3
51 24 2
51 28 1
51 34 4
51 40 1
51 70 3
51 71 0
51 74 3
51 75 4
51 77 1
51 79 2
52 0 3
52 5 2
52 6 0
52 13 2
52 18 0
52 19 3
52 30 4
52 41 1
52 59 0
52 62 1
52 68 2
52 94 2
53 5 3
53 12 2
53 25 1
53 32 3
53 34 4
53 43 3
53 58 4
53 61 0
53 71 0
53 98 1
54 10 0
54 18 1
54 44 2
54 45 0
54 49 4
54 56 4
54 58 2
54 63 3
54 79 3
54 84 2
54 86 1
54 88 2
54 96 0
54 97 2
54 98 1
55 13 4
55 22 2
55 31 1
55 34 0
55 57 4
55 73 4
56 16 3
56 17 2
56 39 0
56 51 4
56 57 3
56 78 1
56 80 4
56 81 4
56 84 0
57 32 1
57 37 2
57 40 3
57 42 3
57 46 4
57 47 4
57 49 3
57 64 2
57 86 1
57 90 1
58 6 2
58 22 0
58 24 0
58 84 1
58 86 3
58 93 0
59 2 0
59 7 4
59 9 3
59 17 0
59 19 1
59 21 3
59 46 1
59 50 2
59 56 4
59 75 4
59 89 0
60 6 4
60 7 3
60 11 2
60 28 1
60 42 0
60 45 3
60 49 4
60 58 2
60 60 3
60 70 1
61 0 0
61 2 3
61 5 4
61 36 2
61 60 4
61 62 0
61 67 4
61 94 3
61 98 0
62 24 3
62 66 0
62 84 2
62 92 4
63 8 2
63 10 3
63 20 4
63 23 3
63 24 3
63 33 4
63 41 3
63 46 4
63 49 4
63 51 1
63 61 0
63 66 2
63 81 1
63 92 1
64 3 4
64 8 3
64 13 0
64 19 0
64 40 2
64 51 4
64 66 4
64 70 2
64 86 3
64 92 3
64 94 2
64 95 3
64 96 3
64 97 2
65 1 3
65 3 0
65 18 3
65 72 1
65 87 4
65 88 0
65 90 4
65 95 1
66 6 3
66 10 2
66 38 4
66 47 3
66 48 0
66 52 3
66 59 3
66 76 2
66 91 0
66 93 1
67 1 4
67 11 3
67 43 1
67 47 3
67 48 4
67 50 2
67 76 0
67 80 2
67 88 3
68 11 2
68 22 1
68 27 2
68 46 4
68 55 4
68 76 0
68 86 1
69 9 3
69 19 4
69 32 2
69 34 1
69 41 0
69 44 4
69 51 1
69 72 2
69 78 2
69 79 1
69 85 2
69 87 2
70 25 4
70 26 4
70 28 2
70 30 2
70 47 0
70 63 0
70 64 2
70 66 2
70 67 2
70 72 4
70 81 2
70 82 1
70 92 2
71 4 0
71 15 2
71 30 1
71 44 4
71 52 4
71 56 0
71 75 0
71 98 2
72 17 2
72 23 1
72 26 4
72 29 4
72 36 1
72 38 2
72 41 1
72 62 4
72 64 3
72 69 3
72 73 3
72 76 1
72 77 4
72 93 3
72 98 2
73 7 4
73 15 3
73 20 3
73 21 2
73 29 1
73 60 0
73 71 4
73 74 1
73 82 0
73 98 2
73 99 0
74 3 3
74 7 4
74 10 1
74 12 3
74 16 3
74 19 4
74 23 1
74 50 1
74 56 1
74 67 3
74 83 2
74 89 0
75 14 4
75 34 4
75 71 0
75 77 1
75 85 3
76 0 4
76 4 3
76 28 1
76 30 1
76 32 1
76 34 4
76 35 2
76 44 1
76 46 2
76 53 2
77 11 2
77 25 3
77 30 2
77 35 3
77 44 3
77 79 1
78 8 4
78 13 4
78 17 0
78 31 0
78 34 0
78 48 1
78 50 1
78 63 0
78 71 4
78 82 1
78 91 1
79 1 1
79 12 3
79 15 0
79 45 2
79 61 3
79 62 4
79 99 0
80 26 3
80 32 1
80 34 0
80 45 1
80 51 2
80 54 1
80 61 1
80 84 3
80 89 4
80 92 3
80 96 2
80 98 0
81 5 1
81 7 1
81 9 4
81 13 3
81 27 2
81 37 3
81 44 3
81 50 3
81 70 3
81 74 1
81 76 4
82 8 2
82 28 3
82 35 0
82 46 1
82 59 4
82 63 2
82 64 2
82 68 1
82 74 3
82 80 2
82 89 4
82 97 0
82 99 2
83 16 3
83 17 4
83 18 1
83 30 4
83 34 4
83 64 2
83 67 1
83 77 1
83 91 2
83 98 2
84 1 4
84 6 1
84 14 2
84 18 3
84 20 0
84 21 0
84 35 2
84 42 0
84 45 0
84 49 2
84 52 1
84 59 4
84 73 0
84 80 1
84 95 0
85 15 1
85 33 2
85 43 1
85 57 1
85 64 2
85 77 4
85 80 2
85 91 0
85 99 1
86 1 3
86 13 1
86 29 4
86 35 4
86 37 0
86 46 4
86 52 0
86 53 2
86 64 4
86 65 3
86 84 4
86 95 3
86 97 2
87 10 4
87 14 3
87 23 3
87 24 0
87 28 0
87 55 1
87 58 1
87 76 1
87 77 4
87 85 3
88 6 3
88 7 0
88 16 4
88 38 4
88 40 1
88 54 2
88 70 2
88 73 1
88 83 1
89 0 0
89 11 4
89 19 4
89 22 4
89 24 0
89 27 0
89 36 0
89 37 1
89 51 2
89 56 2
89 72 1
89 83 3
89 91 1
89 94 0
89 99 2
90 8 0
90 30 1
90 34 3
90 40 1
90 50 2
90 57 1
90 62 2
90 88 4
91 9 0
91 21 3
91 31 2
91 53 1
91 80 2
92 2 3
92 41 2
92 43 2
92 48 3
92 61 3
92 68 4
92 75 1
92 79 0
92 86 2
92 93 3
92 97 3
93 8 0
93 11 0
93 35 1
93 42 0
93 44 2
93 45 3
93 55 1
93 88 1
94 6 2
94 27 0
94 40 0
94 53 1
94 55 1
94 72 3
94 76 4
94 90 0
94 91 1
94 93 0
94 99 2
95 0 0
95 4 3
95 5 2
95 7 1
95 10 3
95 15 2
95 22 2
95 23 2
95 39 4
95 53 0
95 63 0
95 74 3
95 88 2
96 8 3
96 11 3
96 12 4
96 21 1
96 30 0
96 37 3
96 38 2
96 87 3
96 90 2
97 2 4
97 8 1
97 20 4
97 27 4
97 57 1
97 62 1
97 65 2
97 68 1
97 72 3
98 6 2
98 12 3
98 50 1
98 60 0
98 89 3
99 3 0
99 8 4
99 14 2
99 27 2
99 37 3
99 43 2
99 65 4
99 67 4
99 74 0
99 79 3
99 83 0
99 95 0
